c "200235.clq"
p edge 141 548
e 1 5
e 1 6
e 1 8
e 1 9
e 1 10
e 1 11
e 1 14
e 1 18
e 1 19
e 1 24
e 1 26
e 1 31
e 1 33
e 1 44
e 1 58
e 1 61
e 1 68
e 1 69
e 1 78
e 1 80
e 1 106
e 1 127
e 1 129
e 1 133
e 1 138
e 1 139
e 1 141
e 2 5
e 2 6
e 2 7
e 2 10
e 2 11
e 2 15
e 2 17
e 2 23
e 2 25
e 2 27
e 2 32
e 2 49
e 2 55
e 2 56
e 2 60
e 2 66
e 2 70
e 2 71
e 2 79
e 3 5
e 3 6
e 3 7
e 3 10
e 3 11
e 3 12
e 3 13
e 3 19
e 3 20
e 3 28
e 3 30
e 3 36
e 3 64
e 3 74
e 4 5
e 4 8
e 4 42
e 4 72
e 5 6
e 5 7
e 5 8
e 5 9
e 5 12
e 5 13
e 5 16
e 5 21
e 5 23
e 5 24
e 5 25
e 5 26
e 5 29
e 5 38
e 5 41
e 5 45
e 5 47
e 5 48
e 5 55
e 5 57
e 5 58
e 5 64
e 5 68
e 5 70
e 5 72
e 5 78
e 5 83
e 5 86
e 5 90
e 5 99
e 5 104
e 5 105
e 5 114
e 5 121
e 5 123
e 5 126
e 5 135
e 6 7
e 6 9
e 6 14
e 6 15
e 6 18
e 6 34
e 6 35
e 6 41
e 6 54
e 6 69
e 6 74
e 6 108
e 6 127
e 6 139
e 7 8
e 7 35
e 7 40
e 7 52
e 7 61
e 7 85
e 7 86
e 7 114
e 7 118
e 7 120
e 7 121
e 7 124
e 8 9
e 8 10
e 8 12
e 8 17
e 8 18
e 8 19
e 8 22
e 8 24
e 8 31
e 8 36
e 8 37
e 8 40
e 8 42
e 8 53
e 8 55
e 8 81
e 8 90
e 8 93
e 8 100
e 8 108
e 8 111
e 8 114
e 8 128
e 9 11
e 9 13
e 9 14
e 9 15
e 9 19
e 9 27
e 9 29
e 9 30
e 9 45
e 9 46
e 9 56
e 9 68
e 9 78
e 9 85
e 9 86
e 9 87
e 9 108
e 9 129
e 9 134
e 10 16
e 10 18
e 10 20
e 10 22
e 10 26
e 10 27
e 10 32
e 10 34
e 10 39
e 10 45
e 10 50
e 10 52
e 10 56
e 10 57
e 10 59
e 10 66
e 10 69
e 10 74
e 10 81
e 10 88
e 10 91
e 10 93
e 10 95
e 10 102
e 10 105
e 10 107
e 10 113
e 10 116
e 10 119
e 10 120
e 10 124
e 10 126
e 10 134
e 10 138
e 10 141
e 11 12
e 11 13
e 11 16
e 11 17
e 11 24
e 11 33
e 11 37
e 11 38
e 11 43
e 11 57
e 11 60
e 11 67
e 11 71
e 11 77
e 11 82
e 11 89
e 11 93
e 11 104
e 11 109
e 11 115
e 11 122
e 11 131
e 11 132
e 12 29
e 12 75
e 12 87
e 13 14
e 13 15
e 13 16
e 13 17
e 13 21
e 13 26
e 13 30
e 13 32
e 13 41
e 13 63
e 13 95
e 13 110
e 14 21
e 14 22
e 14 42
e 14 46
e 14 50
e 14 65
e 14 66
e 14 72
e 14 84
e 14 94
e 14 112
e 14 123
e 14 137
e 15 28
e 15 40
e 15 117
e 15 118
e 16 25
e 16 40
e 16 48
e 16 64
e 16 73
e 16 124
e 17 20
e 17 21
e 17 22
e 17 28
e 17 36
e 17 43
e 17 44
e 17 48
e 17 49
e 17 67
e 17 77
e 17 80
e 17 89
e 17 138
e 18 37
e 18 58
e 18 98
e 19 20
e 19 50
e 19 51
e 19 65
e 19 76
e 19 81
e 19 88
e 19 94
e 20 28
e 20 56
e 20 66
e 20 76
e 20 85
e 21 23
e 21 51
e 21 64
e 21 71
e 21 73
e 21 118
e 22 23
e 22 32
e 22 39
e 22 48
e 22 49
e 22 50
e 22 51
e 22 60
e 22 63
e 22 90
e 22 92
e 22 101
e 22 106
e 22 129
e 22 132
e 22 137
e 23 29
e 23 35
e 23 67
e 23 75
e 23 79
e 23 103
e 24 25
e 24 27
e 24 30
e 24 31
e 24 34
e 24 36
e 24 39
e 24 43
e 24 47
e 24 49
e 24 53
e 24 59
e 24 63
e 24 65
e 24 68
e 24 71
e 24 98
e 24 107
e 24 113
e 24 129
e 24 130
e 24 135
e 25 33
e 25 37
e 25 51
e 25 52
e 25 54
e 25 62
e 25 69
e 25 84
e 25 87
e 25 97
e 25 117
e 25 131
e 25 140
e 26 38
e 26 44
e 26 54
e 26 59
e 26 62
e 26 63
e 26 72
e 26 92
e 27 31
e 27 59
e 27 83
e 27 106
e 27 117
e 27 122
e 27 126
e 28 43
e 28 92
e 28 95
e 28 127
e 28 128
e 30 34
e 30 42
e 30 54
e 30 73
e 30 86
e 30 99
e 30 100
e 30 102
e 30 116
e 30 120
e 30 136
e 31 35
e 31 38
e 31 39
e 31 45
e 31 46
e 31 47
e 31 53
e 31 65
e 31 79
e 31 84
e 31 96
e 31 133
e 32 33
e 32 135
e 33 44
e 33 52
e 33 53
e 33 55
e 33 60
e 33 61
e 33 75
e 33 78
e 33 87
e 33 91
e 33 96
e 33 109
e 33 115
e 33 131
e 34 98
e 35 58
e 35 103
e 36 80
e 36 109
e 36 114
e 36 130
e 39 67
e 39 80
e 39 83
e 40 41
e 40 46
e 40 47
e 40 77
e 40 101
e 40 138
e 41 57
e 41 128
e 42 105
e 43 94
e 43 100
e 44 62
e 44 82
e 44 88
e 44 97
e 44 99
e 44 102
e 44 122
e 44 127
e 44 136
e 49 113
e 50 92
e 50 110
e 51 74
e 51 76
e 51 79
e 51 106
e 51 139
e 51 141
e 52 126
e 53 61
e 53 70
e 53 103
e 53 128
e 54 119
e 56 83
e 56 105
e 56 110
e 56 111
e 57 89
e 58 96
e 59 62
e 59 93
e 59 97
e 60 97
e 60 116
e 61 103
e 61 132
e 62 81
e 62 133
e 62 134
e 63 125
e 63 136
e 64 107
e 64 112
e 65 82
e 65 104
e 65 110
e 67 73
e 68 76
e 68 95
e 69 70
e 69 75
e 69 90
e 69 111
e 69 139
e 71 88
e 71 100
e 71 107
e 72 85
e 72 89
e 72 91
e 72 96
e 72 136
e 73 77
e 73 101
e 74 82
e 74 91
e 74 98
e 74 104
e 74 108
e 74 118
e 74 119
e 75 101
e 75 116
e 76 102
e 77 111
e 77 130
e 78 123
e 79 130
e 80 115
e 81 84
e 81 99
e 81 119
e 82 94
e 82 109
e 85 135
e 86 124
e 91 132
e 93 112
e 93 123
e 93 125
e 96 112
e 98 113
e 101 121
e 104 125
e 111 115
e 111 121
e 112 120
e 113 125
e 114 117
e 114 122
e 114 133
e 116 140
e 118 140
e 121 137
e 123 137
e 125 134
e 126 131
e 130 140
e 130 141
